MSW04
Position Depot: Center
Horizon for Depot: Small
Position of customers: Mixt
Distribution of the demand: Large
Width of time windows: Wide
Distribution of the service: Small

VEHICLE 
NUMBER 	 CAPACITY 
 6 	 	 765 
 
CUSTOMER
CUST NO. 	 XCOORD.  	 YCOORD. 	 DEMAND 	 READY TIME 	 DUE DATE 	 SERVICE TIME 
 0 	 	 500 	 	 500 	 	 0 	 	 0 	 	 2283 	 	 0 
  1 	 	 165 	 	 31 	 	 18 	 	 1096 	 	 1499 	 	 84 
  2 	 	 40 	 	 113 	 	 12 	 	 1745 	 	 2173 	 	 69 
  3 	 	 150 	 	 599 	 	 13 	 	 912 	 	 1234 	 	 57 
  4 	 	 238 	 	 64 	 	 30 	 	 1669 	 	 2068 	 	 88 
  5 	 	 301 	 	 678 	 	 70 	 	 54 	 	 470 	 	 98 
  6 	 	 600 	 	 686 	 	 33 	 	 1545 	 	 1828 	 	 95 
  7 	 	 449 	 	 244 	 	 49 	 	 1359 	 	 1762 	 	 50 
  8 	 	 478 	 	 70 	 	 11 	 	 1580 	 	 1813 	 	 72 
  9 	 	 425 	 	 249 	 	 79 	 	 1068 	 	 1462 	 	 86 
  10 	 	 305 	 	 681 	 	 70 	 	 -47 	 	 292 	 	 95 
  11 	 	 335 	 	 36 	 	 95 	 	 955 	 	 1431 	 	 99 
  12 	 	 24 	 	 166 	 	 97 	 	 883 	 	 1250 	 	 98 
  13 	 	 353 	 	 331 	 	 92 	 	 1810 	 	 2218 	 	 87 
  14 	 	 373 	 	 692 	 	 89 	 	 1045 	 	 1543 	 	 87 
  15 	 	 561 	 	 655 	 	 51 	 	 342 	 	 661 	 	 81 
  16 	 	 181 	 	 22 	 	 100 	 	 1330 	 	 1720 	 	 70 
  17 	 	 453 	 	 494 	 	 77 	 	 828 	 	 1224 	 	 62 
  18 	 	 378 	 	 792 	 	 8 	 	 264 	 	 726 	 	 94 
  19 	 	 61 	 	 184 	 	 59 	 	 1022 	 	 1422 	 	 61 
  20 	 	 519 	 	 282 	 	 59 	 	 1146 	 	 1409 	 	 70 
  21 	 	 391 	 	 194 	 	 33 	 	 723 	 	 989 	 	 81 
  22 	 	 674 	 	 735 	 	 34 	 	 1077 	 	 1377 	 	 67 
  23 	 	 291 	 	 619 	 	 5 	 	 1694 	 	 2004 	 	 76 
  24 	 	 105 	 	 605 	 	 19 	 	 185 	 	 449 	 	 63 
  25 	 	 328 	 	 679 	 	 100 	 	 1800 	 	 2191 	 	 54 
  26 	 	 541 	 	 322 	 	 60 	 	 1051 	 	 1253 	 	 59 
  27 	 	 244 	 	 682 	 	 98 	 	 370 	 	 818 	 	 88 
  28 	 	 33 	 	 608 	 	 28 	 	 784 	 	 1244 	 	 94 
  29 	 	 689 	 	 622 	 	 26 	 	 807 	 	 1175 	 	 71 
  30 	 	 467 	 	 216 	 	 83 	 	 1119 	 	 1441 	 	 62 
  31 	 	 336 	 	 553 	 	 65 	 	 -100 	 	 189 	 	 75 
  32 	 	 631 	 	 703 	 	 66 	 	 395 	 	 768 	 	 70 
  33 	 	 591 	 	 687 	 	 41 	 	 844 	 	 1158 	 	 64 
  34 	 	 479 	 	 286 	 	 91 	 	 275 	 	 634 	 	 96 
  35 	 	 226 	 	 602 	 	 57 	 	 906 	 	 1185 	 	 58 
  36 	 	 578 	 	 677 	 	 56 	 	 1006 	 	 1280 	 	 60 
  37 	 	 426 	 	 174 	 	 38 	 	 1413 	 	 1830 	 	 93 
  38 	 	 618 	 	 56 	 	 3 	 	 423 	 	 722 	 	 79 
  39 	 	 406 	 	 35 	 	 22 	 	 1988 	 	 2266 	 	 77 
  40 	 	 510 	 	 1 	 	 7 	 	 1799 	 	 1999 	 	 100 
  41 	 	 339 	 	 598 	 	 9 	 	 101 	 	 365 	 	 50 
  42 	 	 240 	 	 714 	 	 72 	 	 650 	 	 1023 	 	 87 
  43 	 	 242 	 	 31 	 	 19 	 	 1660 	 	 1934 	 	 80 
  44 	 	 698 	 	 836 	 	 72 	 	 1514 	 	 1922 	 	 81 
  45 	 	 430 	 	 27 	 	 27 	 	 1221 	 	 1456 	 	 67 
  46 	 	 325 	 	 682 	 	 62 	 	 914 	 	 1126 	 	 79 
  47 	 	 32 	 	 182 	 	 28 	 	 313 	 	 622 	 	 81 
  48 	 	 78 	 	 481 	 	 1 	 	 1853 	 	 2283 	 	 86 
  49 	 	 98 	 	 17 	 	 59 	 	 312 	 	 691 	 	 74 
  50 	 	 82 	 	 29 	 	 79 	 	 353 	 	 692 	 	 51 
  51 	 	 754 	 	 756 	 	 31 	 	 417 	 	 897 	 	 52 
  52 	 	 234 	 	 115 	 	 83 	 	 1289 	 	 1679 	 	 82 
  53 	 	 571 	 	 876 	 	 2 	 	 825 	 	 1091 	 	 62 
  54 	 	 975 	 	 659 	 	 29 	 	 731 	 	 1058 	 	 74 
  55 	 	 542 	 	 731 	 	 7 	 	 695 	 	 1184 	 	 78 
  56 	 	 682 	 	 218 	 	 61 	 	 1112 	 	 1411 	 	 51 
  57 	 	 157 	 	 345 	 	 92 	 	 2004 	 	 2283 	 	 57 
  58 	 	 613 	 	 183 	 	 54 	 	 1614 	 	 1935 	 	 82 
  59 	 	 100 	 	 274 	 	 45 	 	 713 	 	 1149 	 	 68 
  60 	 	 606 	 	 213 	 	 28 	 	 283 	 	 522 	 	 61 
  61 	 	 432 	 	 134 	 	 65 	 	 557 	 	 824 	 	 52 
  62 	 	 319 	 	 629 	 	 64 	 	 520 	 	 953 	 	 76 
  63 	 	 595 	 	 318 	 	 80 	 	 206 	 	 686 	 	 83 
  64 	 	 350 	 	 378 	 	 55 	 	 1220 	 	 1613 	 	 88 
  65 	 	 777 	 	 477 	 	 35 	 	 -122 	 	 305 	 	 75 
  66 	 	 230 	 	 841 	 	 94 	 	 805 	 	 1231 	 	 69 
  67 	 	 101 	 	 998 	 	 46 	 	 1461 	 	 1665 	 	 58 
  68 	 	 821 	 	 761 	 	 65 	 	 1809 	 	 2276 	 	 61 
  69 	 	 287 	 	 269 	 	 52 	 	 93 	 	 526 	 	 54 
  70 	 	 858 	 	 161 	 	 55 	 	 440 	 	 820 	 	 82 
  71 	 	 656 	 	 610 	 	 80 	 	 1359 	 	 1583 	 	 52 
  72 	 	 577 	 	 145 	 	 3 	 	 376 	 	 618 	 	 100 
  73 	 	 465 	 	 169 	 	 48 	 	 1837 	 	 2164 	 	 52 
  74 	 	 244 	 	 875 	 	 6 	 	 1738 	 	 2054 	 	 74 
  75 	 	 219 	 	 305 	 	 12 	 	 578 	 	 965 	 	 68 
  76 	 	 798 	 	 637 	 	 89 	 	 1279 	 	 1513 	 	 70 
  77 	 	 192 	 	 573 	 	 57 	 	 1561 	 	 1867 	 	 96 
  78 	 	 258 	 	 306 	 	 100 	 	 154 	 	 496 	 	 51 
  79 	 	 852 	 	 913 	 	 26 	 	 284 	 	 596 	 	 59 
  80 	 	 830 	 	 225 	 	 33 	 	 1205 	 	 1638 	 	 90 
  81 	 	 81 	 	 164 	 	 90 	 	 331 	 	 773 	 	 59 
  82 	 	 945 	 	 139 	 	 93 	 	 1786 	 	 2283 	 	 50 
  83 	 	 992 	 	 494 	 	 83 	 	 324 	 	 541 	 	 63 
  84 	 	 935 	 	 552 	 	 85 	 	 922 	 	 1341 	 	 88 
  85 	 	 426 	 	 277 	 	 6 	 	 641 	 	 1045 	 	 56 
  86 	 	 614 	 	 607 	 	 74 	 	 1396 	 	 1644 	 	 71 
  87 	 	 814 	 	 691 	 	 77 	 	 1967 	 	 2253 	 	 93 
  88 	 	 663 	 	 739 	 	 89 	 	 803 	 	 1185 	 	 98 
  89 	 	 955 	 	 970 	 	 21 	 	 249 	 	 719 	 	 94 
  90 	 	 801 	 	 887 	 	 21 	 	 2002 	 	 2283 	 	 79 
  91 	 	 120 	 	 10 	 	 65 	 	 379 	 	 868 	 	 95 
  92 	 	 188 	 	 420 	 	 34 	 	 1524 	 	 1903 	 	 85 
  93 	 	 553 	 	 399 	 	 56 	 	 1462 	 	 1932 	 	 60 
  94 	 	 504 	 	 471 	 	 50 	 	 1315 	 	 1694 	 	 56 
  95 	 	 115 	 	 940 	 	 92 	 	 1963 	 	 2283 	 	 68 
  96 	 	 915 	 	 618 	 	 5 	 	 1684 	 	 2158 	 	 82 
  97 	 	 691 	 	 429 	 	 79 	 	 142 	 	 607 	 	 81 
  98 	 	 327 	 	 354 	 	 4 	 	 77 	 	 466 	 	 96 
  99 	 	 34 	 	 326 	 	 93 	 	 399 	 	 884 	 	 51 
  100 	 	 432 	 	 9 	 	 14 	 	 1280 	 	 1750 	 	 60 
 